<number of tasks>
50

<cycle time>
1000

<order strength>
0.595


<task times>
1 57
2 370
3 454
4 101
5 111
6 39
7 290
8 453
9 470
10 217
11 95
12 319
13 147
14 56
15 173
16 82
17 175
18 484
19 135
20 336
21 154
22 140
23 59
24 515
25 127
26 148
27 375
28 79
29 305
30 379
31 455
32 66
33 287
34 110
35 224
36 455
37 108
38 171
39 171
40 290
41 288
42 451
43 259
44 232
45 176
46 129
47 230
48 423
49 624
50 271

<precedence relations>
1,4
1,5
1,6
1,7
1,8
1,9
2,17
2,28
3,19
4,30
4,32
4,37
5,10
5,24
5,26
6,10
6,11
6,12
7,13
7,26
8,11
8,18
9,10
9,11
10,13
11,14
11,16
12,13
12,15
13,18
13,20
13,21
14,19
14,20
14,36
15,17
15,18
15,21
16,19
16,36
17,24
17,33
18,22
18,32
19,23
19,26
19,29
19,35
20,23
20,27
20,31
20,37
21,25
21,31
21,33
21,36
22,28
22,29
22,33
23,39
23,50
24,30
24,31
24,32
25,28
26,44
27,32
27,33
28,35
28,37
28,38
28,39
30,36
30,41
30,42
30,47
31,43
32,34
32,35
32,39
33,47
34,38
35,40
35,42
35,45
35,47
36,39
36,40
38,41
38,42
38,43
38,44
39,43
39,45
40,48
41,48
41,50
42,46
44,47
44,49

<end>
